# Solution for model GasLib-40
# Objective value = 1.0768316501852336e+01
loadshed[innode_1] 0
loadshed[innode_2] 0
loadshed[innode_3] 0
loadshed[innode_4] 0
loadshed[innode_5] 0
loadshed[innode_6] 0
loadshed[innode_7] 0
loadshed[innode_8] 0
loadshed[source_1] -3.2609925453012378e-01
loadshed[source_2] 7.1756845042794892e-02
loadshed[source_3] 3.2245739197202505e-01
loadshed[sink_1] 0
loadshed[sink_2] 0
loadshed[sink_3] 0
loadshed[sink_4] 0
loadshed[sink_5] 0
loadshed[sink_6] 0
loadshed[sink_7] 0
loadshed[sink_8] 0
loadshed[sink_9] 0
loadshed[sink_10] 0
loadshed[sink_11] 0
loadshed[sink_12] 6.5844483068651227e-01
loadshed[sink_13] 0
loadshed[sink_14] 0
loadshed[sink_15] 0
loadshed[sink_16] 0
loadshed[sink_17] 0
loadshed[sink_18] 0
loadshed[sink_19] 0
loadshed[sink_20] 0
loadshed[sink_21] 0
loadshed[sink_22] 0
loadshed[sink_23] 0
loadshed[sink_24] 0
loadshed[sink_25] 0
loadshed[sink_26] 0
loadshed[sink_27] 0
loadshed[sink_28] 0
loadshed[sink_29] 0
flow[source_1,sink_3] 2.0964339950957128e+02
flow[innode_1,sink_16] 1.6354166666666970e+01
flow[innode_6,sink_13] 7.3662675572576859e+00
flow[sink_13,sink_14] -8.9878991094089820e+00
flow[sink_14,sink_10] -2.5342065776075515e+01
flow[sink_25,sink_26] 1.7570775507678673e+02
flow[sink_26,sink_9] 1.2172201633026637e+02
flow[sink_9,sink_18] 1.0536784966359970e+02
flow[sink_26,sink_4] 37.6315720798537
flow[sink_4,sink_20] 0
flow[sink_18,sink_6] 8.9013682996933028e+01
flow[sink_25,innode_8] -1.7693506617623490e+02
flow[sink_6,sink_7] 3.9951182996933312e+01
flow[sink_6,sink_22] 3.2708333333333641e+01
flow[sink_7,sink_24] 3.8294183498147667e+01
flow[sink_22,sink_1] 1.6354166666666970e+01
flow[sink_24,sink_21] 21.940016831481
flow[sink_21,sink_12] 5.5858501648143308e+00
flow[sink_7,sink_5] -1.4697167167881418e+01
flow[sink_5,sink_17] -3.1051333834548245e+01
flow[sink_17,sink_4] -2.1277405413187012e+01
flow[sink_17,sink_8] -2.6128095088028164e+01
flow[sink_3,sink_23] 16.3541666666697
flow[sink_8,sink_20] -4.2482261754694832e+01
flow[sink_25,sink_20] 5.8836428421361660e+01
flow[sink_25,sink_15] -81.3295515458375
flow[sink_15,sink_29] 0
flow[sink_29,sink_28] 1.6354166666667879e+01
flow[sink_29,sink_2] 1.1403788487917085e+02
flow[sink_2,sink_15] 9.7683718212504175e+01
flow[sink_29,innode_7] -1.4674621821250537e+02
flow[innode_4,sink_19] 1.0711289910942256e+02
flow[sink_19,innode_3] 3.6309114037223779e+01
flow[innode_4,innode_5] 0
flow[sink_27,innode_5] 0
flow[sink_27,sink_19] -1.6354166666679703e+01
flow[sink_10,sink_11] 3.2708333333333641e+01
flow[sink_10,innode_2] -3.8095451738852404e+01
flow[sink_10,innode_3] -3.6309114037223779e+01
flow[innode_6,sink_25] -7.3662675572576859e+00
flow[sink_11,innode_1] 1.6354166666666970e+01
flow[sink_19,innode_2] 3.8095451738852404e+01
flow[source_3,innode_4] 1.0711289910942256e+02
flow[source_2,innode_7] 1.4674621821250537e+02
flow[sink_3,innode_8] 1.7693506617623490e+02
pressure[innode_1] 74.5086302604842
pressure[innode_2] 7.6673833531854825e+01
pressure[innode_3] 7.6593431110380536e+01
pressure[innode_4] 81.01325
pressure[innode_5] 81.01325
pressure[innode_6] 7.3486211831809129e+01
pressure[innode_7] 81.01325
pressure[innode_8] 8.0312492202120936e+01
pressure[source_1] 81.01325
pressure[source_2] 81.01325
pressure[source_3] 81.01325
pressure[sink_1] 4.5535310169949987e+01
pressure[sink_2] 7.4199655216916355e+01
pressure[sink_3] 8.0312492202120936e+01
pressure[sink_4] 5.6326642360104245e+01
pressure[sink_5] 5.3200390160101527e+01
pressure[sink_6] 4.7636387780337358e+01
pressure[sink_7] 4.7087953266996664e+01
pressure[sink_8] 5.6499370992081012e+01
pressure[sink_9] 5.3825840995950550e+01
pressure[sink_10] 7.4660331568087742e+01
pressure[sink_11] 74.5086302604842
pressure[sink_12] 1.0132499999999998e+00
pressure[sink_13] 7.3445602829783638e+01
pressure[sink_14] 7.3461687440839654e+01
pressure[sink_15] 7.3880739406097263e+01
pressure[sink_16] 7.3486980425666516e+01
pressure[sink_17] 5.5513490085287842e+01
pressure[sink_18] 5.0013318144918927e+01
pressure[sink_19] 7.6673833531854825e+01
pressure[sink_20] 5.9459787196821729e+01
pressure[sink_21] 3.0010012034112843e+00
pressure[sink_22] 4.6599079312304994e+01
pressure[sink_23] 8.0147774190461149e+01
pressure[sink_24] 3.2439665051131721e+00
pressure[sink_25] 7.3486211831809129e+01
pressure[sink_26] 6.1111217829193258e+01
pressure[sink_27] 7.6322703534711323e+01
pressure[sink_28] 7.6793081266847679e+01
pressure[sink_29] 7.7088363540464854e+01
interdiction[source_1,sink_3] 0
interdiction[innode_1,sink_16] 0
interdiction[innode_6,sink_13] 0
interdiction[sink_13,sink_14] 0
interdiction[sink_14,sink_10] 0
interdiction[sink_25,sink_26] 0
interdiction[sink_26,sink_9] 0
interdiction[sink_9,sink_18] 0
interdiction[sink_26,sink_4] 0
interdiction[sink_4,sink_20] 1
interdiction[sink_18,sink_6] 0
interdiction[sink_25,innode_8] 0
interdiction[sink_6,sink_7] 0
interdiction[sink_6,sink_22] 0
interdiction[sink_7,sink_24] 0
interdiction[sink_22,sink_1] 0
interdiction[sink_24,sink_21] 0
interdiction[sink_21,sink_12] 0
interdiction[sink_7,sink_5] 0
interdiction[sink_5,sink_17] 0
interdiction[sink_17,sink_4] 0
interdiction[sink_17,sink_8] 0
interdiction[sink_3,sink_23] 0
interdiction[sink_8,sink_20] 0
interdiction[sink_25,sink_20] 0
interdiction[sink_25,sink_15] 0
interdiction[sink_15,sink_29] 1
interdiction[sink_29,sink_28] 0
interdiction[sink_29,sink_2] 0
interdiction[sink_2,sink_15] 0
interdiction[sink_29,innode_7] 0
interdiction[innode_4,sink_19] 0
interdiction[sink_19,innode_3] 0
interdiction[innode_4,innode_5] 0
interdiction[sink_27,innode_5] 1
interdiction[sink_27,sink_19] 0
interdiction[sink_10,sink_11] 0
interdiction[sink_10,innode_2] 0
interdiction[sink_10,innode_3] 0
interdiction[innode_6,sink_25] 0
interdiction[sink_11,innode_1] 0
interdiction[sink_19,innode_2] 0
interdiction[source_3,innode_4] 0
interdiction[source_2,innode_7] 0
interdiction[sink_3,innode_8] 0
WCcheckFlow[source_1,sink_3] 39
WCcheckFlow[innode_1,sink_16] 1
WCcheckFlow[innode_6,sink_13] 13
WCcheckFlow[sink_13,sink_14] 12
WCcheckFlow[sink_14,sink_10] 11
WCcheckFlow[sink_25,sink_26] 15
WCcheckFlow[sink_26,sink_9] 13
WCcheckFlow[sink_9,sink_18] 12
WCcheckFlow[sink_26,sink_4] 1
WCcheckFlow[sink_4,sink_20] 0
WCcheckFlow[sink_18,sink_6] 11
WCcheckFlow[sink_25,innode_8] -36
WCcheckFlow[sink_6,sink_7] 8
WCcheckFlow[sink_6,sink_22] 2
WCcheckFlow[sink_7,sink_24] 3
WCcheckFlow[sink_22,sink_1] 1
WCcheckFlow[sink_24,sink_21] 2
WCcheckFlow[sink_21,sink_12] 1
WCcheckFlow[sink_7,sink_5] 4
WCcheckFlow[sink_5,sink_17] 3
WCcheckFlow[sink_17,sink_4] 0
WCcheckFlow[sink_17,sink_8] 2
WCcheckFlow[sink_3,sink_23] 1
WCcheckFlow[sink_8,sink_20] 1
WCcheckFlow[sink_25,sink_20] 0
WCcheckFlow[sink_25,sink_15] 6
WCcheckFlow[sink_15,sink_29] 0
WCcheckFlow[sink_29,sink_28] 1
WCcheckFlow[sink_29,sink_2] -4
WCcheckFlow[sink_2,sink_15] -5
WCcheckFlow[sink_29,innode_7] 2
WCcheckFlow[innode_4,sink_19] -3
WCcheckFlow[sink_19,innode_3] -5
WCcheckFlow[innode_4,innode_5] 1
WCcheckFlow[sink_27,innode_5] 0
WCcheckFlow[sink_27,sink_19] -1
WCcheckFlow[sink_10,sink_11] 3
WCcheckFlow[sink_10,innode_2] 1
WCcheckFlow[sink_10,innode_3] 6
WCcheckFlow[innode_6,sink_25] -14
WCcheckFlow[sink_11,innode_1] 2
WCcheckFlow[sink_19,innode_2] 0
WCcheckFlow[source_3,innode_4] -1
WCcheckFlow[source_2,innode_7] -1
WCcheckFlow[sink_3,innode_8] 37
